NAME : XML100_2364_03
DIMENSION : 101
NB_CLUSTERS : 9
CLUSTERING_ALG : KMeans
CLUSTERING_PARAMS : k(8)
CLUSTERS
1 0
2 2 8 9 23 29 36 40 44 56 63 69 70 73 74 76 83 85 88 89 91 99 100
3 7 11 26 30 32 33 34 35 37 39 54 59 61 62 79
4 6 10 17 20 24 28 49 52 67 71 72 81 82 84 97
5 15 18 45 47 55 77 78
6 1 5 19 27 41 42 53 58 60 75 87 96 98
7 3 4 12 22 43 50 65 66 95
8 13 46 68 80
9 14 16 21 25 31 38 48 51 57 64 86 90 92 93 94
EOF